NAME : rnd41_50.tsp
TYPE : TSP
DIMENSION : 50
EDGE_WEIGHT_TYPE : EUC_2D
NODE_COORD_SECTION
1 39 885
2 834 914
3 375 557
4 56 250
5 523 740
6 709 113
7 586 236
8 557 595
9 240 555
10 40 758
11 307 830
12 766 190
13 119 342
14 831 126
15 19 564
16 582 951
17 466 375
18 361 742
19 473 934
20 669 203
21 988 650
22 919 106
23 45 163
24 32 43
25 543 438
26 771 449
27 604 616
28 516 163
29 393 698
30 497 470
31 403 311
32 329 227
33 283 858
34 630 170
35 130 742
36 70 34
37 464 550
38 444 268
39 995 487
40 769 671
41 373 339
42 954 635
43 634 388
44 435 403
45 228 123
46 485 209
47 178 849
48 583 918
49 272 466
50 193 327
